NAME : 10_3_3_3_(20).dat
COMMENT : Henke, Speranza, Wäscher, 2015
TYPE : MCVRP
DIMENSION : 11
EDGE_WEIGHT_TYPE : DISTANCE_MATRIX
CAPACITY : 1000
VEHICLES : 2
PRODUCT TYPES : 3
COMPARTMENTS : 3
NODE_COORD_SECTION
1 50 50
2 73.92 97.64
3 96.96 89.77
4 68.49 97.98
5 92.67 65.53
6 82.45 74.84
7 27.84 30.92
8 81.54 71.28
9 88.5 73.79
10 3.39 82.22
11 17.7 83.68
DEMAND_SECTION
1 0 0 0
2 137 10 14
3 34 50 15
4 116 26 16
5 130 68 42
6 31 27 47
7 8 7 5
8 40 50 41
9 107 62 6
10 19 43 36
11 40 55 42
DEPOT_SECTION
1
EOF